
Gurobi 6.5.2 (linux64) logging started Wed Aug 31 10:35:25 2016

Optimize a model with 21 rows, 24 columns and 57 nonzeros
Coefficient statistics:
  Matrix range    [1e+00, 2e+00]
  Objective range [3e+00, 9e+01]
  Bounds range    [1e+00, 1e+00]
  RHS range       [1e+00, 1e+00]
Found heuristic solution: objective 585
Presolve removed 21 rows and 24 columns
Presolve time: 0.00s
Presolve: All rows and columns removed

Explored 0 nodes (0 simplex iterations) in 0.00 seconds
Thread count was 1 (of 8 available processors)

Optimal solution found (tolerance 1.00e-04)
Best objective 5.100000000000e+02, best bound 5.100000000000e+02, gap 0.0%
